
  17    4
  10   10   10   10

   0   0   0   0   0   4 2 4 6 7 
   1  10  10  10  10   1 3 
   9  10  10  10  10   5 16 11 10 9 8 
   5  10  10  10  10   1 5 
   6  10  10  10  10   4 16 10 9 8 
   7  10  10  10  10   4 15 13 10 8 
   4  10  10  10  10   3 14 13 11 
   5  10  10  10  10   2 14 12 
   8  10  10  10  10   2 15 13 
   1  10  10  10  10   1 12 
   5  10  10  10  10   1 12 
   8  10  10  10  10   1 17
   5  10  10  10  10   1 17
   1  10  10  10  10   1 17
   6  10  10  10  10   1 17
   1  10  10  10  10   1 17
   0   0   0   0   0   0 
